c cksystemsgroup.github.io/unicorn
c CNF contains a total of 491 clauses.
c CNF contains a total of 117 variables.
c CNF clauses cover 1 bad states.
c Variable name mapping (17 names):
c   1: input[bit=0]
c   2: input[bit=0]
c   4: input[bit=1]
c   6: input[bit=1]
c   11: input[bit=2]
c   16: input[bit=2]
c   21: input[bit=3]
c   29: input[bit=3]
c   35: input[bit=4]
c   46: input[bit=4]
c   51: input[bit=5]
c   65: input[bit=5]
c   70: input[bit=6]
c   87: input[bit=6]
c   93: input[bit=7]
c   113: input[bit=7]
c   117: ?
p cnf 117 491
-1 -2 3 0
1 -3 0
2 -3 0
-4 -2 5 0
4 -5 0
2 -5 0
-1 -6 7 0
1 -7 0
6 -7 0
-8 0
5 7 8 -9 0
5 7 -8 9 0
5 -7 8 9 0
5 -7 -8 -9 0
-5 7 8 9 0
-5 7 -8 -9 0
-5 -7 8 -9 0
-5 -7 -8 9 0
-3 -9 10 0
3 -10 0
9 -10 0
-11 -2 12 0
11 -12 0
2 -12 0
-4 -6 13 0
4 -13 0
6 -13 0
5 7 -14 0
5 8 -14 0
-7 -8 14 0
7 8 -14 0
-5 -8 14 0
-5 -7 14 0
12 13 14 -15 0
12 13 -14 15 0
12 -13 14 15 0
12 -13 -14 -15 0
-12 13 14 15 0
-12 13 -14 -15 0
-12 -13 14 -15 0
-12 -13 -14 15 0
-1 -16 17 0
1 -17 0
16 -17 0
-18 0
15 17 18 -19 0
15 17 -18 19 0
15 -17 18 19 0
15 -17 -18 -19 0
-15 17 18 19 0
-15 17 -18 -19 0
-15 -17 18 -19 0
-15 -17 -18 19 0
-10 -19 20 0
10 -20 0
19 -20 0
-21 -2 22 0
21 -22 0
2 -22 0
-11 -6 23 0
11 -23 0
6 -23 0
12 13 -24 0
12 14 -24 0
-13 -14 24 0
13 14 -24 0
-12 -14 24 0
-12 -13 24 0
22 23 24 -25 0
22 23 -24 25 0
22 -23 24 25 0
22 -23 -24 -25 0
-22 23 24 25 0
-22 23 -24 -25 0
-22 -23 24 -25 0
-22 -23 -24 25 0
-4 -16 26 0
4 -26 0
16 -26 0
15 17 -27 0
15 18 -27 0
-17 -18 27 0
17 18 -27 0
-15 -18 27 0
-15 -17 27 0
25 26 27 -28 0
25 26 -27 28 0
25 -26 27 28 0
25 -26 -27 -28 0
-25 26 27 28 0
-25 26 -27 -28 0
-25 -26 27 -28 0
-25 -26 -27 28 0
-1 -29 30 0
1 -30 0
29 -30 0
-31 0
28 30 31 -32 0
28 30 -31 32 0
28 -30 31 32 0
28 -30 -31 -32 0
-28 30 31 32 0
-28 30 -31 -32 0
-28 -30 31 -32 0
-28 -30 -31 32 0
-32 -33 0
32 33 0
-20 -33 34 0
20 -34 0
33 -34 0
-35 -2 36 0
35 -36 0
2 -36 0
-21 -6 37 0
21 -37 0
6 -37 0
22 23 -38 0
22 24 -38 0
-23 -24 38 0
23 24 -38 0
-22 -24 38 0
-22 -23 38 0
36 37 38 -39 0
36 37 -38 39 0
36 -37 38 39 0
36 -37 -38 -39 0
-36 37 38 39 0
-36 37 -38 -39 0
-36 -37 38 -39 0
-36 -37 -38 39 0
-11 -16 40 0
11 -40 0
16 -40 0
25 26 -41 0
25 27 -41 0
-26 -27 41 0
26 27 -41 0
-25 -27 41 0
-25 -26 41 0
39 40 41 -42 0
39 40 -41 42 0
39 -40 41 42 0
39 -40 -41 -42 0
-39 40 41 42 0
-39 40 -41 -42 0
-39 -40 41 -42 0
-39 -40 -41 42 0
-4 -29 43 0
4 -43 0
29 -43 0
28 30 -44 0
28 31 -44 0
-30 -31 44 0
30 31 -44 0
-28 -31 44 0
-28 -30 44 0
42 43 44 -45 0
42 43 -44 45 0
42 -43 44 45 0
42 -43 -44 -45 0
-42 43 44 45 0
-42 43 -44 -45 0
-42 -43 44 -45 0
-42 -43 -44 45 0
-1 -46 47 0
1 -47 0
46 -47 0
-48 0
45 47 48 -49 0
45 47 -48 49 0
45 -47 48 49 0
45 -47 -48 -49 0
-45 47 48 49 0
-45 47 -48 -49 0
-45 -47 48 -49 0
-45 -47 -48 49 0
-34 -49 50 0
34 -50 0
49 -50 0
-51 -2 52 0
51 -52 0
2 -52 0
-35 -6 53 0
35 -53 0
6 -53 0
36 37 -54 0
36 38 -54 0
-37 -38 54 0
37 38 -54 0
-36 -38 54 0
-36 -37 54 0
52 53 54 -55 0
52 53 -54 55 0
52 -53 54 55 0
52 -53 -54 -55 0
-52 53 54 55 0
-52 53 -54 -55 0
-52 -53 54 -55 0
-52 -53 -54 55 0
-21 -16 56 0
21 -56 0
16 -56 0
39 40 -57 0
39 41 -57 0
-40 -41 57 0
40 41 -57 0
-39 -41 57 0
-39 -40 57 0
55 56 57 -58 0
55 56 -57 58 0
55 -56 57 58 0
55 -56 -57 -58 0
-55 56 57 58 0
-55 56 -57 -58 0
-55 -56 57 -58 0
-55 -56 -57 58 0
-11 -29 59 0
11 -59 0
29 -59 0
42 43 -60 0
42 44 -60 0
-43 -44 60 0
43 44 -60 0
-42 -44 60 0
-42 -43 60 0
58 59 60 -61 0
58 59 -60 61 0
58 -59 60 61 0
58 -59 -60 -61 0
-58 59 60 61 0
-58 59 -60 -61 0
-58 -59 60 -61 0
-58 -59 -60 61 0
-4 -46 62 0
4 -62 0
46 -62 0
45 47 -63 0
45 48 -63 0
-47 -48 63 0
47 48 -63 0
-45 -48 63 0
-45 -47 63 0
61 62 63 -64 0
61 62 -63 64 0
61 -62 63 64 0
61 -62 -63 -64 0
-61 62 63 64 0
-61 62 -63 -64 0
-61 -62 63 -64 0
-61 -62 -63 64 0
-1 -65 66 0
1 -66 0
65 -66 0
-67 0
64 66 67 -68 0
64 66 -67 68 0
64 -66 67 68 0
64 -66 -67 -68 0
-64 66 67 68 0
-64 66 -67 -68 0
-64 -66 67 -68 0
-64 -66 -67 68 0
-50 -68 69 0
50 -69 0
68 -69 0
-70 -2 71 0
70 -71 0
2 -71 0
-51 -6 72 0
51 -72 0
6 -72 0
52 53 -73 0
52 54 -73 0
-53 -54 73 0
53 54 -73 0
-52 -54 73 0
-52 -53 73 0
71 72 73 -74 0
71 72 -73 74 0
71 -72 73 74 0
71 -72 -73 -74 0
-71 72 73 74 0
-71 72 -73 -74 0
-71 -72 73 -74 0
-71 -72 -73 74 0
-35 -16 75 0
35 -75 0
16 -75 0
55 56 -76 0
55 57 -76 0
-56 -57 76 0
56 57 -76 0
-55 -57 76 0
-55 -56 76 0
74 75 76 -77 0
74 75 -76 77 0
74 -75 76 77 0
74 -75 -76 -77 0
-74 75 76 77 0
-74 75 -76 -77 0
-74 -75 76 -77 0
-74 -75 -76 77 0
-21 -29 78 0
21 -78 0
29 -78 0
58 59 -79 0
58 60 -79 0
-59 -60 79 0
59 60 -79 0
-58 -60 79 0
-58 -59 79 0
77 78 79 -80 0
77 78 -79 80 0
77 -78 79 80 0
77 -78 -79 -80 0
-77 78 79 80 0
-77 78 -79 -80 0
-77 -78 79 -80 0
-77 -78 -79 80 0
-11 -46 81 0
11 -81 0
46 -81 0
61 62 -82 0
61 63 -82 0
-62 -63 82 0
62 63 -82 0
-61 -63 82 0
-61 -62 82 0
80 81 82 -83 0
80 81 -82 83 0
80 -81 82 83 0
80 -81 -82 -83 0
-80 81 82 83 0
-80 81 -82 -83 0
-80 -81 82 -83 0
-80 -81 -82 83 0
-4 -65 84 0
4 -84 0
65 -84 0
64 66 -85 0
64 67 -85 0
-66 -67 85 0
66 67 -85 0
-64 -67 85 0
-64 -66 85 0
83 84 85 -86 0
83 84 -85 86 0
83 -84 85 86 0
83 -84 -85 -86 0
-83 84 85 86 0
-83 84 -85 -86 0
-83 -84 85 -86 0
-83 -84 -85 86 0
-1 -87 88 0
1 -88 0
87 -88 0
-89 0
86 88 89 -90 0
86 88 -89 90 0
86 -88 89 90 0
86 -88 -89 -90 0
-86 88 89 90 0
-86 88 -89 -90 0
-86 -88 89 -90 0
-86 -88 -89 90 0
-90 -91 0
90 91 0
-69 -91 92 0
69 -92 0
91 -92 0
-93 -2 94 0
93 -94 0
2 -94 0
-70 -6 95 0
70 -95 0
6 -95 0
71 72 -96 0
71 73 -96 0
-72 -73 96 0
72 73 -96 0
-71 -73 96 0
-71 -72 96 0
94 95 96 -97 0
94 95 -96 97 0
94 -95 96 97 0
94 -95 -96 -97 0
-94 95 96 97 0
-94 95 -96 -97 0
-94 -95 96 -97 0
-94 -95 -96 97 0
-51 -16 98 0
51 -98 0
16 -98 0
74 75 -99 0
74 76 -99 0
-75 -76 99 0
75 76 -99 0
-74 -76 99 0
-74 -75 99 0
97 98 99 -100 0
97 98 -99 100 0
97 -98 99 100 0
97 -98 -99 -100 0
-97 98 99 100 0
-97 98 -99 -100 0
-97 -98 99 -100 0
-97 -98 -99 100 0
-35 -29 101 0
35 -101 0
29 -101 0
77 78 -102 0
77 79 -102 0
-78 -79 102 0
78 79 -102 0
-77 -79 102 0
-77 -78 102 0
100 101 102 -103 0
100 101 -102 103 0
100 -101 102 103 0
100 -101 -102 -103 0
-100 101 102 103 0
-100 101 -102 -103 0
-100 -101 102 -103 0
-100 -101 -102 103 0
-21 -46 104 0
21 -104 0
46 -104 0
80 81 -105 0
80 82 -105 0
-81 -82 105 0
81 82 -105 0
-80 -82 105 0
-80 -81 105 0
103 104 105 -106 0
103 104 -105 106 0
103 -104 105 106 0
103 -104 -105 -106 0
-103 104 105 106 0
-103 104 -105 -106 0
-103 -104 105 -106 0
-103 -104 -105 106 0
-11 -65 107 0
11 -107 0
65 -107 0
83 84 -108 0
83 85 -108 0
-84 -85 108 0
84 85 -108 0
-83 -85 108 0
-83 -84 108 0
106 107 108 -109 0
106 107 -108 109 0
106 -107 108 109 0
106 -107 -108 -109 0
-106 107 108 109 0
-106 107 -108 -109 0
-106 -107 108 -109 0
-106 -107 -108 109 0
-4 -87 110 0
4 -110 0
87 -110 0
86 88 -111 0
86 89 -111 0
-88 -89 111 0
88 89 -111 0
-86 -89 111 0
-86 -88 111 0
109 110 111 -112 0
109 110 -111 112 0
109 -110 111 112 0
109 -110 -111 -112 0
-109 110 111 112 0
-109 110 -111 -112 0
-109 -110 111 -112 0
-109 -110 -111 112 0
-1 -113 114 0
1 -114 0
113 -114 0
-115 0
112 114 115 -116 0
112 114 -115 116 0
112 -114 115 116 0
112 -114 -115 -116 0
-112 114 115 116 0
-112 114 -115 -116 0
-112 -114 115 -116 0
-112 -114 -115 116 0
-92 -116 117 0
92 -117 0
116 -117 0
117 0
